c Random generated cnf formula, satisfiable: true
p cnf 10 50
-8 10 6 0
-4 7 -10 0
3 1 -5 0
4 1 -5 0
10 -9 -2 0
6 -9 3 0
4 -1 -2 0
1 2 -8 0
-3 4 -5 0
7 8 3 0
-10 -8 -6 0
-5 6 -9 0
-8 4 6 0
-10 -3 9 0
8 7 6 0
-5 -10 -6 0
-2 -3 -9 0
-4 -3 9 0
-5 -2 3 0
-6 -3 5 0
-5 10 1 0
-9 2 -4 0
9 -6 -10 0
8 -3 -10 0
8 3 -1 0
-2 -8 6 0
6 -3 -1 0
1 -8 5 0
-8 -9 -2 0
3 8 10 0
3 -4 7 0
6 -7 -4 0
-1 4 7 0
10 -3 -8 0
6 -8 7 0
5 2 9 0
9 -5 -4 0
-1 3 4 0
-1 6 5 0
9 -4 -3 0
2 -10 8 0
-3 2 4 0
9 -1 2 0
7 -1 -10 0
8 -1 9 0
-3 -2 -6 0
7 10 2 0
1 10 5 0
-7 -6 -5 0
6 10 4 0
